data/lp_files/q3/40_6.lp
\ Model foo
\ LP format - for model browsing. Use MPS format to capture full model detail.
Minimize
  z
Subject To
 allocateEach[1]: x[1,1] + x[2,1] = 1
 allocateEach[2]: x[1,2] + x[2,2] = 1
 allocateEach[3]: x[1,3] + x[2,3] = 1
 allocateEach[4]: x[1,4] + x[2,4] = 1
 allocateEach[5]: x[1,5] + x[2,5] = 1
 allocateEach[6]: x[1,6] + x[2,6] = 1
 allocateEach[7]: x[1,7] + x[2,7] = 1
 allocateEach[8]: x[1,8] + x[2,8] = 1
 allocateEach[9]: x[1,9] + x[2,9] = 1
 allocateEach[10]: x[1,10] + x[2,10] = 1
 allocateEach[11]: x[1,11] + x[2,11] = 1
 allocateEach[12]: x[1,12] + x[2,12] = 1
 allocateEach[13]: x[1,13] + x[2,13] = 1
 allocateEach[14]: x[1,14] + x[2,14] = 1
 allocateEach[15]: x[1,15] + x[2,15] = 1
 allocateEach[16]: x[1,16] + x[2,16] = 1
 allocateEach[17]: x[1,17] + x[2,17] = 1
 allocateEach[18]: x[1,18] + x[2,18] = 1
 allocateEach[19]: x[1,19] + x[2,19] = 1
 allocateEach[20]: x[1,20] + x[2,20] = 1
 allocateAllCash: cashProportion[1] + cashProportion[2] = 1
 findWorstP[1,2]: z + 0.0333992969447993 cashProportion[1]
   - 0.0333992969447993 cashProportion[2] + 0.0208578609420272 x[1,1]
   + 0.00328148092482653 x[1,2] + 0.0298422718201782 x[1,3]
   + 0.0324557668061087 x[1,4] + 0.0647111378305487 x[1,5]
   + 0.0250494727085995 x[1,6] + 0.0441789200337333 x[1,7]
   + 0.0120153970758916 x[1,8] + 0.077887160475272 x[1,9]
   + 0.0556766280069804 x[1,10] + 0.0511009243255429 x[1,11]
   + 0.0759333016040012 x[1,12] + 0.0715913930011773 x[1,13]
   + 0.0683516611975318 x[1,14] + 0.00292243848266994 x[1,15]
   + 0.0556098294130909 x[1,16] + 0.0474520511343236 x[1,17]
   + 0.0775030685604068 x[1,18] + 0.0781209555538856 x[1,19]
   + 0.0720589831584045 x[1,20] - 0.0208578609420272 x[2,1]
   - 0.00328148092482653 x[2,2] - 0.0298422718201782 x[2,3]
   - 0.0324557668061087 x[2,4] - 0.0647111378305487 x[2,5]
   - 0.0250494727085995 x[2,6] - 0.0441789200337333 x[2,7]
   - 0.0120153970758916 x[2,8] - 0.077887160475272 x[2,9]
   - 0.0556766280069804 x[2,10] - 0.0511009243255429 x[2,11]
   - 0.0759333016040012 x[2,12] - 0.0715913930011773 x[2,13]
   - 0.0683516611975318 x[2,14] - 0.00292243848266994 x[2,15]
   - 0.0556098294130909 x[2,16] - 0.0474520511343236 x[2,17]
   - 0.0775030685604068 x[2,18] - 0.0781209555538856 x[2,19]
   - 0.0720589831584045 x[2,20] >= 0
 findWorstP[2,1]: z - 0.0408134112869489 cashProportion[1]
   + 0.0408134112869489 cashProportion[2] - 0.00774434479169855 x[1,1]
   - 0.0203352821737223 x[1,2] - 0.0979725937943208 x[1,3]
   - 0.0194679971838746 x[1,4] - 0.0744334588345731 x[1,5]
   - 0.0649851541216444 x[1,6] - 0.0380789127307233 x[1,7]
   - 0.0655667452324834 x[1,8] - 0.0581999244951891 x[1,9]
   - 0.0838919669003235 x[1,10] - 0.04892507678023 x[1,11]
   - 0.0759843684634771 x[1,12] - 0.0447008887120308 x[1,13]
   - 0.0586896854306325 x[1,14] - 0.0659442692868877 x[1,15]
   - 0.00151009621761711 x[1,16] - 0.0196312508290224 x[1,17]
   - 0.0134786290775149 x[1,18] - 0.0503841562337384 x[1,19]
   - 0.0492617874233473 x[1,20] + 0.00774434479169855 x[2,1]
   + 0.0203352821737223 x[2,2] + 0.0979725937943208 x[2,3]
   + 0.0194679971838746 x[2,4] + 0.0744334588345731 x[2,5]
   + 0.0649851541216444 x[2,6] + 0.0380789127307233 x[2,7]
   + 0.0655667452324834 x[2,8] + 0.0581999244951891 x[2,9]
   + 0.0838919669003235 x[2,10] + 0.04892507678023 x[2,11]
   + 0.0759843684634771 x[2,12] + 0.0447008887120308 x[2,13]
   + 0.0586896854306325 x[2,14] + 0.0659442692868877 x[2,15]
   + 0.00151009621761711 x[2,16] + 0.0196312508290224 x[2,17]
   + 0.0134786290775149 x[2,18] + 0.0503841562337384 x[2,19]
   + 0.0492617874233473 x[2,20] >= 0
Bounds
 z <= 1
 -infinity <= cashProportion[1] <= 1
 -infinity <= cashProportion[2] <= 1
Binaries
 x[1,1] x[1,2] x[1,3] x[1,4] x[1,5] x[1,6] x[1,7] x[1,8] x[1,9] x[1,10]
 x[1,11] x[1,12] x[1,13] x[1,14] x[1,15] x[1,16] x[1,17] x[1,18] x[1,19]
 x[1,20] x[2,1] x[2,2] x[2,3] x[2,4] x[2,5] x[2,6] x[2,7] x[2,8] x[2,9]
 x[2,10] x[2,11] x[2,12] x[2,13] x[2,14] x[2,15] x[2,16] x[2,17] x[2,18]
 x[2,19] x[2,20]
End
