data/mps_files/q3/40_6.mps
NAME foo
ROWS
 N  OBJ
 E  allocateEach[1]
 E  allocateEach[2]
 E  allocateEach[3]
 E  allocateEach[4]
 E  allocateEach[5]
 E  allocateEach[6]
 E  allocateEach[7]
 E  allocateEach[8]
 E  allocateEach[9]
 E  allocateEach[10]
 E  allocateEach[11]
 E  allocateEach[12]
 E  allocateEach[13]
 E  allocateEach[14]
 E  allocateEach[15]
 E  allocateEach[16]
 E  allocateEach[17]
 E  allocateEach[18]
 E  allocateEach[19]
 E  allocateEach[20]
 E  allocateAllCash
 G  findWorstP[1,2]
 G  findWorstP[2,1]
COLUMNS
    z         OBJ       1
    z         findWorstP[1,2]  1
    z         findWorstP[2,1]  1
    cashProportion[1]  allocateAllCash  1
    cashProportion[1]  findWorstP[1,2]  3.3399296944799310e-02
    cashProportion[1]  findWorstP[2,1]  -0.0408134112869489
    cashProportion[2]  allocateAllCash  1
    cashProportion[2]  findWorstP[1,2]  -3.3399296944799310e-02
    cashProportion[2]  findWorstP[2,1]  0.0408134112869489
    MARKER    'MARKER'                 'INTORG'
    x[1,1]    allocateEach[1]  1
    x[1,1]    findWorstP[1,2]  2.0857860942027170e-02
    x[1,1]    findWorstP[2,1]  -7.7443447916985542e-03
    x[1,2]    allocateEach[2]  1
    x[1,2]    findWorstP[1,2]  3.2814809248265324e-03
    x[1,2]    findWorstP[2,1]  -2.0335282173722290e-02
    x[1,3]    allocateEach[3]  1
    x[1,3]    findWorstP[1,2]  2.9842271820178186e-02
    x[1,3]    findWorstP[2,1]  -9.7972593794320842e-02
    x[1,4]    allocateEach[4]  1
    x[1,4]    findWorstP[1,2]  3.2455766806108732e-02
    x[1,4]    findWorstP[2,1]  -1.9467997183874628e-02
    x[1,5]    allocateEach[5]  1
    x[1,5]    findWorstP[1,2]  6.4711137830548673e-02
    x[1,5]    findWorstP[2,1]  -7.4433458834573071e-02
    x[1,6]    allocateEach[6]  1
    x[1,6]    findWorstP[1,2]  2.5049472708599484e-02
    x[1,6]    findWorstP[2,1]  -6.4985154121644392e-02
    x[1,7]    allocateEach[7]  1
    x[1,7]    findWorstP[1,2]  4.4178920033733290e-02
    x[1,7]    findWorstP[2,1]  -3.8078912730723322e-02
    x[1,8]    allocateEach[8]  1
    x[1,8]    findWorstP[1,2]  1.2015397075891552e-02
    x[1,8]    findWorstP[2,1]  -0.0655667452324834
    x[1,9]    allocateEach[9]  1
    x[1,9]    findWorstP[1,2]  7.7887160475271985e-02
    x[1,9]    findWorstP[2,1]  -5.8199924495189140e-02
    x[1,10]   allocateEach[10]  1
    x[1,10]   findWorstP[1,2]  5.5676628006980450e-02
    x[1,10]   findWorstP[2,1]  -8.3891966900323481e-02
    x[1,11]   allocateEach[11]  1
    x[1,11]   findWorstP[1,2]  5.1100924325542946e-02
    x[1,11]   findWorstP[2,1]  -0.04892507678023
    x[1,12]   allocateEach[12]  1
    x[1,12]   findWorstP[1,2]  7.5933301604001233e-02
    x[1,12]   findWorstP[2,1]  -7.5984368463477128e-02
    x[1,13]   allocateEach[13]  1
    x[1,13]   findWorstP[1,2]  7.1591393001177325e-02
    x[1,13]   findWorstP[2,1]  -4.4700888712030783e-02
    x[1,14]   allocateEach[14]  1
    x[1,14]   findWorstP[1,2]  6.8351661197531791e-02
    x[1,14]   findWorstP[2,1]  -5.8689685430632528e-02
    x[1,15]   allocateEach[15]  1
    x[1,15]   findWorstP[1,2]  0.00292243848266994
    x[1,15]   findWorstP[2,1]  -0.0659442692868877
    x[1,16]   allocateEach[16]  1
    x[1,16]   findWorstP[1,2]  5.5609829413090860e-02
    x[1,16]   findWorstP[2,1]  -1.5100962176171095e-03
    x[1,17]   allocateEach[17]  1
    x[1,17]   findWorstP[1,2]  4.7452051134323624e-02
    x[1,17]   findWorstP[2,1]  -1.9631250829022420e-02
    x[1,18]   allocateEach[18]  1
    x[1,18]   findWorstP[1,2]  0.0775030685604068
    x[1,18]   findWorstP[2,1]  -1.3478629077514875e-02
    x[1,19]   allocateEach[19]  1
    x[1,19]   findWorstP[1,2]  7.8120955553885582e-02
    x[1,19]   findWorstP[2,1]  -5.0384156233738424e-02
    x[1,20]   allocateEach[20]  1
    x[1,20]   findWorstP[1,2]  7.2058983158404519e-02
    x[1,20]   findWorstP[2,1]  -4.9261787423347324e-02
    x[2,1]    allocateEach[1]  1
    x[2,1]    findWorstP[1,2]  -2.0857860942027170e-02
    x[2,1]    findWorstP[2,1]  7.7443447916985542e-03
    x[2,2]    allocateEach[2]  1
    x[2,2]    findWorstP[1,2]  -3.2814809248265324e-03
    x[2,2]    findWorstP[2,1]  2.0335282173722290e-02
    x[2,3]    allocateEach[3]  1
    x[2,3]    findWorstP[1,2]  -2.9842271820178186e-02
    x[2,3]    findWorstP[2,1]  9.7972593794320842e-02
    x[2,4]    allocateEach[4]  1
    x[2,4]    findWorstP[1,2]  -3.2455766806108732e-02
    x[2,4]    findWorstP[2,1]  1.9467997183874628e-02
    x[2,5]    allocateEach[5]  1
    x[2,5]    findWorstP[1,2]  -6.4711137830548673e-02
    x[2,5]    findWorstP[2,1]  7.4433458834573071e-02
    x[2,6]    allocateEach[6]  1
    x[2,6]    findWorstP[1,2]  -2.5049472708599484e-02
    x[2,6]    findWorstP[2,1]  6.4985154121644392e-02
    x[2,7]    allocateEach[7]  1
    x[2,7]    findWorstP[1,2]  -4.4178920033733290e-02
    x[2,7]    findWorstP[2,1]  3.8078912730723322e-02
    x[2,8]    allocateEach[8]  1
    x[2,8]    findWorstP[1,2]  -1.2015397075891552e-02
    x[2,8]    findWorstP[2,1]  0.0655667452324834
    x[2,9]    allocateEach[9]  1
    x[2,9]    findWorstP[1,2]  -7.7887160475271985e-02
    x[2,9]    findWorstP[2,1]  5.8199924495189140e-02
    x[2,10]   allocateEach[10]  1
    x[2,10]   findWorstP[1,2]  -5.5676628006980450e-02
    x[2,10]   findWorstP[2,1]  8.3891966900323481e-02
    x[2,11]   allocateEach[11]  1
    x[2,11]   findWorstP[1,2]  -5.1100924325542946e-02
    x[2,11]   findWorstP[2,1]  0.04892507678023
    x[2,12]   allocateEach[12]  1
    x[2,12]   findWorstP[1,2]  -7.5933301604001233e-02
    x[2,12]   findWorstP[2,1]  7.5984368463477128e-02
    x[2,13]   allocateEach[13]  1
    x[2,13]   findWorstP[1,2]  -7.1591393001177325e-02
    x[2,13]   findWorstP[2,1]  4.4700888712030783e-02
    x[2,14]   allocateEach[14]  1
    x[2,14]   findWorstP[1,2]  -6.8351661197531791e-02
    x[2,14]   findWorstP[2,1]  5.8689685430632528e-02
    x[2,15]   allocateEach[15]  1
    x[2,15]   findWorstP[1,2]  -0.00292243848266994
    x[2,15]   findWorstP[2,1]  0.0659442692868877
    x[2,16]   allocateEach[16]  1
    x[2,16]   findWorstP[1,2]  -5.5609829413090860e-02
    x[2,16]   findWorstP[2,1]  1.5100962176171095e-03
    x[2,17]   allocateEach[17]  1
    x[2,17]   findWorstP[1,2]  -4.7452051134323624e-02
    x[2,17]   findWorstP[2,1]  1.9631250829022420e-02
    x[2,18]   allocateEach[18]  1
    x[2,18]   findWorstP[1,2]  -0.0775030685604068
    x[2,18]   findWorstP[2,1]  1.3478629077514875e-02
    x[2,19]   allocateEach[19]  1
    x[2,19]   findWorstP[1,2]  -7.8120955553885582e-02
    x[2,19]   findWorstP[2,1]  5.0384156233738424e-02
    x[2,20]   allocateEach[20]  1
    x[2,20]   findWorstP[1,2]  -7.2058983158404519e-02
    x[2,20]   findWorstP[2,1]  4.9261787423347324e-02
    MARKER    'MARKER'                 'INTEND'
RHS
    RHS1      allocateEach[1]  1
    RHS1      allocateEach[2]  1
    RHS1      allocateEach[3]  1
    RHS1      allocateEach[4]  1
    RHS1      allocateEach[5]  1
    RHS1      allocateEach[6]  1
    RHS1      allocateEach[7]  1
    RHS1      allocateEach[8]  1
    RHS1      allocateEach[9]  1
    RHS1      allocateEach[10]  1
    RHS1      allocateEach[11]  1
    RHS1      allocateEach[12]  1
    RHS1      allocateEach[13]  1
    RHS1      allocateEach[14]  1
    RHS1      allocateEach[15]  1
    RHS1      allocateEach[16]  1
    RHS1      allocateEach[17]  1
    RHS1      allocateEach[18]  1
    RHS1      allocateEach[19]  1
    RHS1      allocateEach[20]  1
    RHS1      allocateAllCash  1
BOUNDS
 UP BND1      z         1
 MI BND1      cashProportion[1]
 UP BND1      cashProportion[1]  1
 MI BND1      cashProportion[2]
 UP BND1      cashProportion[2]  1
 BV BND1      x[1,1]  
 BV BND1      x[1,2]  
 BV BND1      x[1,3]  
 BV BND1      x[1,4]  
 BV BND1      x[1,5]  
 BV BND1      x[1,6]  
 BV BND1      x[1,7]  
 BV BND1      x[1,8]  
 BV BND1      x[1,9]  
 BV BND1      x[1,10] 
 BV BND1      x[1,11] 
 BV BND1      x[1,12] 
 BV BND1      x[1,13] 
 BV BND1      x[1,14] 
 BV BND1      x[1,15] 
 BV BND1      x[1,16] 
 BV BND1      x[1,17] 
 BV BND1      x[1,18] 
 BV BND1      x[1,19] 
 BV BND1      x[1,20] 
 BV BND1      x[2,1]  
 BV BND1      x[2,2]  
 BV BND1      x[2,3]  
 BV BND1      x[2,4]  
 BV BND1      x[2,5]  
 BV BND1      x[2,6]  
 BV BND1      x[2,7]  
 BV BND1      x[2,8]  
 BV BND1      x[2,9]  
 BV BND1      x[2,10] 
 BV BND1      x[2,11] 
 BV BND1      x[2,12] 
 BV BND1      x[2,13] 
 BV BND1      x[2,14] 
 BV BND1      x[2,15] 
 BV BND1      x[2,16] 
 BV BND1      x[2,17] 
 BV BND1      x[2,18] 
 BV BND1      x[2,19] 
 BV BND1      x[2,20] 
ENDATA
